p tw 40 238
e 0 4
e 0 5
e 0 11
e 0 17
e 0 20
e 0 25
e 0 29
e 0 30
e 0 32
e 0 35
e 1 7
e 1 12
e 1 15
e 1 18
e 1 20
e 1 21
e 1 24
e 1 26
e 1 33
e 1 35
e 2 3
e 2 15
e 2 17
e 2 20
e 2 21
e 2 22
e 2 25
e 2 28
e 2 32
e 2 35
e 3 14
e 3 15
e 3 17
e 3 18
e 3 20
e 3 25
e 3 26
e 3 34
e 3 36
e 3 39
e 4 6
e 4 7
e 4 13
e 4 15
e 4 23
e 4 29
e 4 31
e 4 34
e 4 36
e 4 38
e 5 8
e 5 9
e 5 13
e 5 14
e 5 16
e 5 22
e 5 24
e 5 28
e 5 29
e 5 31
e 5 33
e 5 34
e 5 35
e 5 38
e 5 39
e 6 10
e 6 12
e 6 16
e 6 30
e 6 33
e 6 34
e 6 36
e 6 38
e 7 8
e 7 11
e 7 14
e 7 18
e 7 20
e 7 21
e 7 23
e 7 29
e 7 31
e 7 35
e 7 37
e 8 13
e 8 15
e 8 17
e 8 19
e 8 24
e 8 25
e 8 26
e 8 27
e 8 28
e 8 30
e 8 32
e 8 33
e 8 35
e 9 12
e 9 13
e 9 15
e 9 22
e 9 32
e 9 37
e 9 38
e 10 13
e 10 15
e 10 19
e 10 21
e 10 36
e 10 37
e 10 38
e 11 13
e 11 15
e 11 18
e 11 21
e 11 23
e 11 26
e 11 27
e 11 32
e 12 14
e 12 15
e 12 17
e 12 20
e 12 21
e 12 25
e 12 29
e 12 33
e 12 36
e 12 38
e 13 17
e 13 18
e 13 24
e 13 32
e 13 36
e 14 15
e 14 16
e 14 17
e 14 18
e 14 20
e 14 21
e 14 25
e 14 28
e 14 31
e 14 32
e 14 34
e 14 39
e 15 20
e 15 26
e 15 27
e 15 35
e 15 36
e 16 18
e 16 19
e 16 22
e 16 23
e 16 24
e 16 25
e 16 32
e 16 36
e 16 37
e 16 38
e 17 19
e 17 24
e 17 26
e 17 27
e 17 30
e 17 31
e 17 32
e 17 33
e 17 34
e 17 35
e 17 36
e 18 23
e 18 24
e 18 25
e 18 27
e 18 28
e 18 34
e 19 20
e 19 25
e 19 37
e 19 39
e 20 27
e 21 22
e 21 24
e 21 33
e 21 39
e 22 25
e 22 27
e 22 28
e 22 29
e 22 35
e 22 37
e 22 38
e 22 39
e 23 31
e 23 32
e 23 36
e 24 27
e 24 30
e 24 31
e 24 34
e 24 36
e 25 30
e 25 33
e 25 35
e 25 36
e 25 38
e 25 39
e 26 38
e 27 28
e 27 31
e 27 33
e 27 34
e 28 32
e 28 33
e 29 30
e 29 31
e 29 34
e 29 35
e 29 39
e 30 33
e 30 34
e 30 37
e 30 39
e 31 33
e 31 39
e 32 34
e 32 35
e 32 37
e 33 34
e 34 35
e 35 36
e 35 37
e 35 38
e 36 37
e 36 39
e 37 38
